p cnf 13 28
e 1 2 3 4 0
5 -4 3 0
4 -5 0
-3 -5 0
6 -5 -2 0
5 -6 0
2 -6 0
7 -6 1 0
6 -7 0
-1 -7 0
-8 4 -4 0
-4 8 0
4 8 0
9 3 -8 0
-3 -9 0
8 -9 0
10 -2 -9 0
2 -10 0
9 -10 0
-11 -2 10 0
2 11 0
-10 11 0
12 1 -11 0
-1 -12 0
11 -12 0
13 -7 -12 0
7 -13 0
12 -13 0
13 0

